6810.0
1 0 1 1 1 1 1 0 0 0 
18 30 31 32 33 46 60 61 64 70 73 

4 12 14 15 35 36 39 40 54 55 56 75 76 77 81 82 83 84 85 86 87 88 89 
6 7 9 17 34 41 42 43 44 57 58 59 74 
2 10 22 23 27 49 50 68 69 71 72 
0 5 8 16 25 26 28 29 45 47 63 79 80 
1 3 11 13 19 20 21 24 37 38 48 51 52 53 62 65 66 67 78 



